p cnf 139 367
-42 -5 1 0
-42 5 -1 0
42 -5 -1 0
42 5 1 0
-43 -13 9 0
-43 13 -9 0
43 -13 -9 0
43 13 9 0
-44 43 -42 0
-44 -43 42 0
44 43 42 0
44 -43 -42 0
-45 33 0
-45 41 0
45 -33 -41 0
-46 -18 17 0
-46 18 -17 0
46 -18 -17 0
46 18 17 0
-47 -20 19 0
-47 20 -19 0
47 -20 -19 0
47 20 19 0
-48 47 -46 0
-48 -47 46 0
48 47 46 0
48 -47 -46 0
-49 -22 21 0
-49 22 -21 0
49 -22 -21 0
49 22 21 0
-50 -24 23 0
-50 24 -23 0
50 -24 -23 0
50 24 23 0
-51 50 -49 0
-51 -50 49 0
51 50 49 0
51 -50 -49 0
-52 51 -48 0
-52 -51 48 0
52 51 48 0
52 -51 -48 0
-53 52 45 0
-53 -52 -45 0
53 52 -45 0
53 -52 45 0
-54 53 -44 0
-54 -53 44 0
54 53 44 0
54 -53 -44 0
-55 -21 17 0
-55 21 -17 0
55 -21 -17 0
55 21 17 0
-56 -29 25 0
-56 29 -25 0
56 -29 -25 0
56 29 25 0
-57 56 -55 0
-57 -56 55 0
57 56 55 0
57 -56 -55 0
-58 37 0
-58 41 0
58 -37 -41 0
-59 -2 1 0
-59 2 -1 0
59 -2 -1 0
59 2 1 0
-60 -4 3 0
-60 4 -3 0
60 -4 -3 0
60 4 3 0
-61 60 -59 0
-61 -60 59 0
61 60 59 0
61 -60 -59 0
-62 -6 5 0
-62 6 -5 0
62 -6 -5 0
62 6 5 0
-63 -8 7 0
-63 8 -7 0
63 -8 -7 0
63 8 7 0
-64 63 -62 0
-64 -63 62 0
64 63 62 0
64 -63 -62 0
-65 64 -61 0
-65 -64 61 0
65 64 61 0
65 -64 -61 0
-66 65 58 0
-66 -65 -58 0
66 65 -58 0
66 -65 58 0
-67 66 -57 0
-67 -66 57 0
67 66 57 0
67 -66 -57 0
-68 -22 18 0
-68 22 -18 0
68 -22 -18 0
68 22 18 0
-69 -30 26 0
-69 30 -26 0
69 -30 -26 0
69 30 26 0
-70 69 -68 0
-70 -69 68 0
70 69 68 0
70 -69 -68 0
-71 38 0
-71 41 0
71 -38 -41 0
-72 -10 9 0
-72 10 -9 0
72 -10 -9 0
72 10 9 0
-73 -12 11 0
-73 12 -11 0
73 -12 -11 0
73 12 11 0
-74 73 -72 0
-74 -73 72 0
74 73 72 0
74 -73 -72 0
-75 -14 13 0
-75 14 -13 0
75 -14 -13 0
75 14 13 0
-76 -16 15 0
-76 16 -15 0
76 -16 -15 0
76 16 15 0
-77 76 -75 0
-77 -76 75 0
77 76 75 0
77 -76 -75 0
-78 77 -74 0
-78 -77 74 0
78 77 74 0
78 -77 -74 0
-79 78 71 0
-79 -78 -71 0
79 78 -71 0
79 -78 71 0
-80 79 -70 0
-80 -79 70 0
80 79 70 0
80 -79 -70 0
-81 -23 19 0
-81 23 -19 0
81 -23 -19 0
81 23 19 0
-82 -31 27 0
-82 31 -27 0
82 -31 -27 0
82 31 27 0
-83 82 -81 0
-83 -82 81 0
83 82 81 0
83 -82 -81 0
-84 39 0
-84 41 0
84 -39 -41 0
-85 74 -61 0
-85 -74 61 0
85 74 61 0
85 -74 -61 0
-86 85 84 0
-86 -85 -84 0
86 85 -84 0
86 -85 84 0
-87 86 -83 0
-87 -86 83 0
87 86 83 0
87 -86 -83 0
-88 -24 20 0
-88 24 -20 0
88 -24 -20 0
88 24 20 0
-89 -32 28 0
-89 32 -28 0
89 -32 -28 0
89 32 28 0
-90 89 -88 0
-90 -89 88 0
90 89 88 0
90 -89 -88 0
-91 40 0
-91 41 0
91 -40 -41 0
-92 77 -64 0
-92 -77 64 0
92 77 64 0
92 -77 -64 0
-93 92 91 0
-93 -92 -91 0
93 92 -91 0
93 -92 91 0
-94 93 -90 0
-94 -93 90 0
94 93 90 0
94 -93 -90 0
-95 -6 2 0
-95 6 -2 0
95 -6 -2 0
95 6 2 0
-96 -14 10 0
-96 14 -10 0
96 -14 -10 0
96 14 10 0
-97 96 -95 0
-97 -96 95 0
97 96 95 0
97 -96 -95 0
-98 34 0
-98 41 0
98 -34 -41 0
-99 -26 25 0
-99 26 -25 0
99 -26 -25 0
99 26 25 0
-100 -28 27 0
-100 28 -27 0
100 -28 -27 0
100 28 27 0
-101 100 -99 0
-101 -100 99 0
101 100 99 0
101 -100 -99 0
-102 -30 29 0
-102 30 -29 0
102 -30 -29 0
102 30 29 0
-103 -32 31 0
-103 32 -31 0
103 -32 -31 0
103 32 31 0
-104 103 -102 0
-104 -103 102 0
104 103 102 0
104 -103 -102 0
-105 104 -101 0
-105 -104 101 0
105 104 101 0
105 -104 -101 0
-106 105 98 0
-106 -105 -98 0
106 105 -98 0
106 -105 98 0
-107 106 -97 0
-107 -106 97 0
107 106 97 0
107 -106 -97 0
-108 -7 3 0
-108 7 -3 0
108 -7 -3 0
108 7 3 0
-109 -15 11 0
-109 15 -11 0
109 -15 -11 0
109 15 11 0
-110 109 -108 0
-110 -109 108 0
110 109 108 0
110 -109 -108 0
-111 35 0
-111 41 0
111 -35 -41 0
-112 101 -48 0
-112 -101 48 0
112 101 48 0
112 -101 -48 0
-113 112 111 0
-113 -112 -111 0
113 112 -111 0
113 -112 111 0
-114 113 -110 0
-114 -113 110 0
114 113 110 0
114 -113 -110 0
-115 -8 4 0
-115 8 -4 0
115 -8 -4 0
115 8 4 0
-116 -16 12 0
-116 16 -12 0
116 -16 -12 0
116 16 12 0
-117 116 -115 0
-117 -116 115 0
117 116 115 0
117 -116 -115 0
-118 36 0
-118 41 0
118 -36 -41 0
-119 104 -51 0
-119 -104 51 0
119 104 51 0
119 -104 -51 0
-120 119 118 0
-120 -119 -118 0
120 119 -118 0
120 -119 118 0
-121 120 -117 0
-121 -120 117 0
121 120 117 0
121 -120 -117 0
-122 54 0
-122 -107 0
122 -54 107 0
-123 114 0
-123 122 0
123 -114 -122 0
-124 -67 0
-124 80 0
124 67 -80 0
-125 87 0
-125 124 0
125 -87 -124 0
-126 67 0
-126 -80 0
126 -67 80 0
-127 87 0
-127 126 0
127 -87 -126 0
-128 67 0
-128 80 0
128 -67 -80 0
-129 87 0
-129 128 0
129 -87 -128 0
-130 -87 0
-130 128 0
130 87 -128 0
-131 94 0
-131 127 0
131 -94 -127 0
-132 94 0
-132 125 0
132 -94 -125 0
-133 -94 -130 0
-133 94 -129 0
133 -94 130 0
133 94 129 0
-134 -131 0
-134 133 0
134 131 -133 0
-135 -132 0
-135 134 0
135 132 -134 0
-136 -121 0
-136 123 0
136 121 -123 0
-137 -135 0
-137 136 0
137 135 -136 0
-138 -94 0
-138 137 0
138 94 -137 0
139 -138 -32 0
139 138 32 0
-139 0
